WARNING: for repeatability, setting FPU to use double precision
============================[ Problem Statistics ]=============================
|                                                                             |
|  Number of variables:        235660                                         |
|  Number of clauses:          539397                                         |
|  Parse time:                   0.18 s                                       |
|                                                                             |
============================[ Search Statistics ]==============================
| Conflicts |          ORIGINAL         |          LEARNT          | Progress |
|           |    Vars  Clauses Literals |    Limit  Clauses Lit/Cl |          |
===============================================================================
|       100 |  129166   515706  1160178 |   189092      100     12 | 45.190 % |
|       250 |  129166   515706  1160178 |   208001      250     30 | 45.190 % |
|       475 |  129166   515706  1160178 |   228801      475     31 | 45.190 % |
===============================================================================
restarts              : 6
conflicts             : 779            (1371 /sec)
decisions             : 11509          (0.00 % random) (20261 /sec)
propagations          : 2475629        (4358233 /sec)
conflict literals     : 23349          (8.34 % deleted)
Memory used           : 58.00 MB
CPU time              : 0.568035 s

SATISFIABLE
